p edge 420 2100
e 1 168
e 1 253
e 1 277
e 1 286
e 1 420
e 2 68
e 2 70
e 2 162
e 2 197
e 2 331
e 3 1
e 3 19
e 3 118
e 3 328
e 3 390
e 4 42
e 4 109
e 4 175
e 4 193
e 4 249
e 5 43
e 5 187
e 5 266
e 5 273
e 5 362
e 6 65
e 6 115
e 6 341
e 6 347
e 6 391
e 7 18
e 7 38
e 7 176
e 7 176
e 7 177
e 8 54
e 8 189
e 8 252
e 8 303
e 8 335
e 9 119
e 9 178
e 9 302
e 9 360
e 9 419
e 10 8
e 10 43
e 10 245
e 10 354
e 10 355
e 11 80
e 11 118
e 11 195
e 11 292
e 11 418
e 12 39
e 12 253
e 12 315
e 12 356
e 12 401
e 13 68
e 13 125
e 13 177
e 13 374
e 13 398
e 14 95
e 14 191
e 14 287
e 14 367
e 14 389
e 15 4
e 15 143
e 15 176
e 15 331
e 15 414
e 16 7
e 16 142
e 16 257
e 16 296
e 16 297
e 17 14
e 17 36
e 17 49
e 17 237
e 17 384
e 18 116
e 18 189
e 18 241
e 18 248
e 18 259
e 19 113
e 19 152
e 19 255
e 19 283
e 19 411
e 20 4
e 20 22
e 20 347
e 20 387
e 20 395
e 21 128
e 21 196
e 21 334
e 21 373
e 21 386
e 22 60
e 22 72
e 22 95
e 22 205
e 22 237
e 23 19
e 23 70
e 23 248
e 23 254
e 23 300
e 24 3
e 24 46
e 24 158
e 24 238
e 24 275
e 25 20
e 25 161
e 25 239
e 25 413
e 25 419
e 26 50
e 26 181
e 26 226
e 26 246
e 26 339
e 27 108
e 27 292
e 27 308
e 27 329
e 27 362
e 28 12
e 28 102
e 28 175
e 28 326
e 28 365
e 29 38
e 29 211
e 29 359
e 29 364
e 29 380
e 30 15
e 30 32
e 30 146
e 30 151
e 30 323
e 31 165
e 31 194
e 31 261
e 31 276
e 31 377
e 32 19
e 32 179
e 32 278
e 32 351
e 32 401
e 33 49
e 33 76
e 33 194
e 33 344
e 33 388
e 34 78
e 34 112
e 34 166
e 34 283
e 34 396
e 35 63
e 35 179
e 35 274
e 35 286
e 35 345
e 36 104
e 36 152
e 36 161
e 36 188
e 36 237
e 37 14
e 37 39
e 37 100
e 37 197
e 37 383
e 38 126
e 38 159
e 38 225
e 38 250
e 38 269
e 39 41
e 39 105
e 39 323
e 39 342
e 39 418
e 40 221
e 40 222
e 40 255
e 40 350
e 40 392
e 41 16
e 41 313
e 41 318
e 41 411
e 41 415
e 42 22
e 42 58
e 42 146
e 42 203
e 42 398
e 43 80
e 43 194
e 43 195
e 43 254
e 43 354
e 44 38
e 44 171
e 44 317
e 44 385
e 44 405
e 45 37
e 45 51
e 45 88
e 45 239
e 45 356
e 46 57
e 46 209
e 46 223
e 46 312
e 46 404
e 47 33
e 47 182
e 47 197
e 47 221
e 47 287
e 48 89
e 48 168
e 48 360
e 48 402
e 48 417
e 49 60
e 49 279
e 49 375
e 49 386
e 49 410
e 50 64
e 50 111
e 50 126
e 50 296
e 50 353
e 51 70
e 51 144
e 51 317
e 51 352
e 51 376
e 52 174
e 52 261
e 52 279
e 52 400
e 52 412
e 53 79
e 53 233
e 53 311
e 53 335
e 53 391
e 54 263
e 54 295
e 54 304
e 54 374
e 54 391
e 55 5
e 55 150
e 55 152
e 55 162
e 55 174
e 56 121
e 56 122
e 56 190
e 56 293
e 56 324
e 57 76
e 57 151
e 57 295
e 57 300
e 57 402
e 58 46
e 58 274
e 58 298
e 58 319
e 58 393
e 59 101
e 59 115
e 59 227
e 59 289
e 59 362
e 60 107
e 60 251
e 60 268
e 60 361
e 60 408
e 61 54
e 61 57
e 61 88
e 61 93
e 61 316
e 62 27
e 62 50
e 62 190
e 62 339
e 62 375
e 63 1
e 63 54
e 63 152
e 63 223
e 63 360
e 64 122
e 64 292
e 64 344
e 64 346
e 64 363
e 65 43
e 65 103
e 65 210
e 65 267
e 65 369
e 66 148
e 66 212
e 66 250
e 66 382
e 66 412
e 67 124
e 67 256
e 67 280
e 67 312
e 67 368
e 68 127
e 68 180
e 68 245
e 68 246
e 68 346
e 69 75
e 69 156
e 69 301
e 69 339
e 69 403
e 70 68
e 70 129
e 70 136
e 70 315
e 70 351
e 71 154
e 71 276
e 71 291
e 71 359
e 71 361
e 72 22
e 72 62
e 72 202
e 72 317
e 72 414
e 73 36
e 73 56
e 73 232
e 73 243
e 73 288
e 74 17
e 74 79
e 74 128
e 74 279
e 74 315
e 75 8
e 75 10
e 75 176
e 75 202
e 75 256
e 76 28
e 76 54
e 76 59
e 76 164
e 76 182
e 77 5
e 77 44
e 77 155
e 77 238
e 77 366
e 78 140
e 78 266
e 78 305
e 78 314
e 78 370
e 79 64
e 79 122
e 79 195
e 79 245
e 79 396
e 80 164
e 80 214
e 80 216
e 80 248
e 80 306
e 81 24
e 81 269
e 81 290
e 81 375
e 81 395
e 82 105
e 82 114
e 82 157
e 82 240
e 82 369
e 83 21
e 83 121
e 83 173
e 83 367
e 83 412
e 84 48
e 84 179
e 84 208
e 84 285
e 84 391
e 85 32
e 85 102
e 85 124
e 85 183
e 85 194
e 86 144
e 86 276
e 86 382
e 86 389
e 86 407
e 87 125
e 87 156
e 87 231
e 87 409
e 87 411
e 88 74
e 88 129
e 88 154
e 88 243
e 88 260
e 89 133
e 89 197
e 89 290
e 89 301
e 89 342
e 90 78
e 90 109
e 90 286
e 90 312
e 90 361
e 91 1
e 91 49
e 91 278
e 91 380
e 91 406
e 92 36
e 92 90
e 92 189
e 92 193
e 92 205
e 93 124
e 93 156
e 93 157
e 93 307
e 93 316
e 94 5
e 94 165
e 94 267
e 94 299
e 94 410
e 95 18
e 95 127
e 95 161
e 95 218
e 95 314
e 96 22
e 96 98
e 96 200
e 96 260
e 96 329
e 97 70
e 97 81
e 97 160
e 97 183
e 97 413
e 98 163
e 98 164
e 98 303
e 98 359
e 98 367
e 99 84
e 99 132
e 99 224
e 99 254
e 99 288
e 100 60
e 100 93
e 100 246
e 100 248
e 100 288
e 101 46
e 101 210
e 101 248
e 101 276
e 101 310
e 102 158
e 102 265
e 102 349
e 102 413
e 102 418
e 103 52
e 103 55
e 103 282
e 103 344
e 103 414
e 104 247
e 104 255
e 104 322
e 104 336
e 104 365
e 105 73
e 105 162
e 105 189
e 105 402
e 105 420
e 106 71
e 106 141
e 106 220
e 106 316
e 106 325
e 107 230
e 107 287
e 107 289
e 107 319
e 107 408
e 108 148
e 108 193
e 108 264
e 108 283
e 108 408
e 109 111
e 109 132
e 109 135
e 109 275
e 109 400
e 110 10
e 110 133
e 110 203
e 110 265
e 110 400
e 111 126
e 111 129
e 111 225
e 111 353
e 111 383
e 112 40
e 112 82
e 112 169
e 112 319
e 112 410
e 113 10
e 113 142
e 113 173
e 113 202
e 113 392
e 114 84
e 114 159
e 114 313
e 114 398
e 114 403
e 115 53
e 115 57
e 115 258
e 115 293
e 115 405
e 116 41
e 116 49
e 116 322
e 116 340
e 116 415
e 117 26
e 117 173
e 117 175
e 117 203
e 117 323
e 118 106
e 118 159
e 118 182
e 118 231
e 118 397
e 119 27
e 119 156
e 119 280
e 119 360
e 119 406
e 120 55
e 120 66
e 120 68
e 120 227
e 120 313
e 121 34
e 121 70
e 121 117
e 121 139
e 121 333
e 122 9
e 122 117
e 122 229
e 122 374
e 122 400
e 123 76
e 123 230
e 123 285
e 123 354
e 123 398
e 124 266
e 124 278
e 124 312
e 124 376
e 124 397
e 125 29
e 125 53
e 125 150
e 125 303
e 125 338
e 126 6
e 126 59
e 126 61
e 126 203
e 126 368
e 127 87
e 127 163
e 127 238
e 127 321
e 127 395
e 128 24
e 128 127
e 128 130
e 128 159
e 128 164
e 129 69
e 129 151
e 129 152
e 129 163
e 129 344
e 130 33
e 130 169
e 130 325
e 130 396
e 130 409
e 131 69
e 131 205
e 131 231
e 131 386
e 131 401
e 132 62
e 132 122
e 132 157
e 132 249
e 132 406
e 133 53
e 133 289
e 133 307
e 133 331
e 133 398
e 134 113
e 134 125
e 134 150
e 134 185
e 134 312
e 135 1
e 135 25
e 135 71
e 135 131
e 135 207
e 136 24
e 136 94
e 136 128
e 136 166
e 136 197
e 137 92
e 137 216
e 137 260
e 137 278
e 137 317
e 138 164
e 138 182
e 138 186
e 138 253
e 138 349
e 139 16
e 139 37
e 139 281
e 139 391
e 139 416
e 140 90
e 140 114
e 140 248
e 140 265
e 140 410
e 141 50
e 141 134
e 141 166
e 141 320
e 141 406
e 142 46
e 142 204
e 142 278
e 142 318
e 142 318
e 143 22
e 143 28
e 143 48
e 143 70
e 143 348
e 144 56
e 144 65
e 144 93
e 144 99
e 144 149
e 145 182
e 145 299
e 145 315
e 145 343
e 145 382
e 146 40
e 146 131
e 146 255
e 146 351
e 146 368
e 147 82
e 147 234
e 147 235
e 147 238
e 147 302
e 148 96
e 148 129
e 148 186
e 148 196
e 148 416
e 149 32
e 149 135
e 149 224
e 149 337
e 149 361
e 150 18
e 150 74
e 150 91
e 150 221
e 150 382
e 151 121
e 151 305
e 151 323
e 151 331
e 151 416
e 152 18
e 152 51
e 152 154
e 152 185
e 152 352
e 153 102
e 153 104
e 153 200
e 153 238
e 153 326
e 154 15
e 154 19
e 154 40
e 154 277
e 154 381
e 155 125
e 155 221
e 155 316
e 155 357
e 155 359
e 156 6
e 156 88
e 156 102
e 156 317
e 156 323
e 157 238
e 157 296
e 157 328
e 157 354
e 157 356
e 158 31
e 158 129
e 158 154
e 158 218
e 158 313
e 159 26
e 159 96
e 159 146
e 159 331
e 159 420
e 160 223
e 160 306
e 160 324
e 160 348
e 160 369
e 161 8
e 161 186
e 161 225
e 161 259
e 161 419
e 162 14
e 162 290
e 162 309
e 162 314
e 162 373
e 163 106
e 163 183
e 163 199
e 163 210
e 163 398
e 164 6
e 164 26
e 164 188
e 164 193
e 164 300
e 165 68
e 165 105
e 165 205
e 165 308
e 165 360
e 166 98
e 166 130
e 166 276
e 166 294
e 166 349
e 167 58
e 167 96
e 167 229
e 167 294
e 167 416
e 168 129
e 168 209
e 168 277
e 168 292
e 168 364
e 169 36
e 169 47
e 169 171
e 169 225
e 169 276
e 170 49
e 170 64
e 170 145
e 170 269
e 170 341
e 171 26
e 171 232
e 171 291
e 171 321
e 171 414
e 172 29
e 172 90
e 172 168
e 172 293
e 172 412
e 173 7
e 173 269
e 173 373
e 173 388
e 173 399
e 174 9
e 174 66
e 174 126
e 174 246
e 174 411
e 175 4
e 175 61
e 175 183
e 175 202
e 175 379
e 176 4
e 176 16
e 176 39
e 176 186
e 176 250
e 177 11
e 177 100
e 177 222
e 177 227
e 177 292
e 178 14
e 178 148
e 178 194
e 178 251
e 178 372
e 179 1
e 179 40
e 179 122
e 179 307
e 179 365
e 180 110
e 180 289
e 180 322
e 180 370
e 180 378
e 181 113
e 181 228
e 181 232
e 181 289
e 181 359
e 182 221
e 182 286
e 182 311
e 182 353
e 182 354
e 183 161
e 183 179
e 183 275
e 183 318
e 183 407
e 184 83
e 184 164
e 184 171
e 184 181
e 184 300
e 185 33
e 185 135
e 185 155
e 185 176
e 185 398
e 186 62
e 186 84
e 186 221
e 186 393
e 186 405
e 187 37
e 187 146
e 187 393
e 187 396
e 187 398
e 188 164
e 188 267
e 188 294
e 188 379
e 188 396
e 189 35
e 189 75
e 189 260
e 189 300
e 189 316
e 190 126
e 190 168
e 190 179
e 190 286
e 190 410
e 191 55
e 191 104
e 191 286
e 191 322
e 191 340
e 192 10
e 192 36
e 192 57
e 192 219
e 192 382
e 193 13
e 193 31
e 193 62
e 193 118
e 193 231
e 194 68
e 194 90
e 194 316
e 194 339
e 194 420
e 195 63
e 195 85
e 195 162
e 195 213
e 195 228
e 196 7
e 196 134
e 196 145
e 196 352
e 196 413
e 197 42
e 197 167
e 197 181
e 197 306
e 197 394
e 198 43
e 198 82
e 198 99
e 198 256
e 198 404
e 199 1
e 199 157
e 199 212
e 199 390
e 199 399
e 200 35
e 200 65
e 200 193
e 200 361
e 200 382
e 201 44
e 201 61
e 201 95
e 201 126
e 201 153
e 202 28
e 202 34
e 202 114
e 202 176
e 202 232
e 203 19
e 203 265
e 203 276
e 203 342
e 203 411
e 204 2
e 204 220
e 204 257
e 204 310
e 204 409
e 205 223
e 205 254
e 205 352
e 205 358
e 205 397
e 206 20
e 206 188
e 206 304
e 206 409
e 206 418
e 207 138
e 207 170
e 207 216
e 207 259
e 207 304
e 208 202
e 208 238
e 208 278
e 208 280
e 208 293
e 209 11
e 209 35
e 209 193
e 209 296
e 209 317
e 210 4
e 210 58
e 210 140
e 210 192
e 210 202
e 211 71
e 211 269
e 211 333
e 211 397
e 211 405
e 212 27
e 212 158
e 212 194
e 212 205
e 212 385
e 213 72
e 213 181
e 213 247
e 213 251
e 213 381
e 214 20
e 214 60
e 214 264
e 214 310
e 214 345
e 215 29
e 215 75
e 215 105
e 215 257
e 215 318
e 216 63
e 216 114
e 216 230
e 216 379
e 216 388
e 217 50
e 217 178
e 217 282
e 217 389
e 217 397
e 218 23
e 218 27
e 218 182
e 218 241
e 218 322
e 219 105
e 219 170
e 219 226
e 219 231
e 219 296
e 220 10
e 220 29
e 220 190
e 220 195
e 220 328
e 221 25
e 221 160
e 221 240
e 221 262
e 221 295
e 222 67
e 222 186
e 222 193
e 222 310
e 222 334
e 223 25
e 223 34
e 223 146
e 223 214
e 223 383
e 224 112
e 224 131
e 224 164
e 224 275
e 224 315
e 225 51
e 225 213
e 225 244
e 225 309
e 225 362
e 226 34
e 226 135
e 226 142
e 226 244
e 226 352
e 227 120
e 227 131
e 227 140
e 227 153
e 227 176
e 228 83
e 228 114
e 228 201
e 228 205
e 228 314
e 229 55
e 229 123
e 229 334
e 229 338
e 229 409
e 230 174
e 230 208
e 230 233
e 230 304
e 230 399
e 231 30
e 231 129
e 231 154
e 231 173
e 231 260
e 232 32
e 232 212
e 232 317
e 232 366
e 232 403
e 233 25
e 233 98
e 233 239
e 233 353
e 233 402
e 234 15
e 234 17
e 234 63
e 234 159
e 234 236
e 235 28
e 235 30
e 235 54
e 235 207
e 235 289
e 236 100
e 236 156
e 236 275
e 236 298
e 236 367
e 237 150
e 237 263
e 237 284
e 237 306
e 237 329
e 238 33
e 238 96
e 238 147
e 238 239
e 238 308
e 239 56
e 239 96
e 239 173
e 239 258
e 239 354
e 240 49
e 240 78
e 240 79
e 240 176
e 240 361
e 241 74
e 241 198
e 241 228
e 241 286
e 241 342
e 242 104
e 242 123
e 242 220
e 242 244
e 242 310
e 243 51
e 243 86
e 243 143
e 243 219
e 243 273
e 244 128
e 244 197
e 244 243
e 244 246
e 244 317
e 245 39
e 245 218
e 245 383
e 245 395
e 245 411
e 246 105
e 246 237
e 246 300
e 246 347
e 246 378
e 247 2
e 247 53
e 247 362
e 247 368
e 247 409
e 248 15
e 248 15
e 248 177
e 248 221
e 248 411
e 249 242
e 249 267
e 249 331
e 249 335
e 249 356
e 250 93
e 250 134
e 250 192
e 250 358
e 250 407
e 251 15
e 251 77
e 251 80
e 251 151
e 251 194
e 252 121
e 252 195
e 252 211
e 252 321
e 252 348
e 253 41
e 253 183
e 253 338
e 253 340
e 253 378
e 254 12
e 254 18
e 254 25
e 254 154
e 254 356
e 255 14
e 255 136
e 255 235
e 255 358
e 255 386
e 256 55
e 256 121
e 256 248
e 256 284
e 256 406
e 257 53
e 257 320
e 257 326
e 257 362
e 257 386
e 258 123
e 258 171
e 258 272
e 258 312
e 258 350
e 259 26
e 259 188
e 259 214
e 259 260
e 259 364
e 260 89
e 260 146
e 260 230
e 260 326
e 260 367
e 261 63
e 261 143
e 261 155
e 261 286
e 261 419
e 262 89
e 262 90
e 262 102
e 262 134
e 262 182
e 263 20
e 263 27
e 263 139
e 263 208
e 263 320
e 264 13
e 264 116
e 264 194
e 264 204
e 264 328
e 265 31
e 265 109
e 265 117
e 265 142
e 265 184
e 266 178
e 266 195
e 266 292
e 266 351
e 266 380
e 267 4
e 267 21
e 267 220
e 267 329
e 267 366
e 268 48
e 268 118
e 268 237
e 268 275
e 268 326
e 269 1
e 269 13
e 269 202
e 269 259
e 269 299
e 270 85
e 270 169
e 270 194
e 270 233
e 270 292
e 271 190
e 271 202
e 271 224
e 271 312
e 271 334
e 272 201
e 272 220
e 272 233
e 272 278
e 272 289
e 273 87
e 273 150
e 273 288
e 273 319
e 273 386
e 274 46
e 274 106
e 274 130
e 274 133
e 274 216
e 275 15
e 275 41
e 275 188
e 275 270
e 275 283
e 276 1
e 276 40
e 276 235
e 276 251
e 276 316
e 277 17
e 277 132
e 277 328
e 277 393
e 277 417
e 278 58
e 278 110
e 278 180
e 278 364
e 278 369
e 279 23
e 279 63
e 279 153
e 279 255
e 279 346
e 280 21
e 280 30
e 280 89
e 280 211
e 280 300
e 281 137
e 281 266
e 281 318
e 281 360
e 281 394
e 282 97
e 282 150
e 282 155
e 282 235
e 282 398
e 283 19
e 283 41
e 283 156
e 283 163
e 283 175
e 284 35
e 284 113
e 284 273
e 284 334
e 284 390
e 285 37
e 285 166
e 285 341
e 285 377
e 285 406
e 286 220
e 286 236
e 286 306
e 286 401
e 286 406
e 287 8
e 287 33
e 287 38
e 287 244
e 287 350
e 288 23
e 288 140
e 288 307
e 288 355
e 288 374
e 289 79
e 289 105
e 289 124
e 289 230
e 289 365
e 290 27
e 290 145
e 290 156
e 290 198
e 290 266
e 291 263
e 291 307
e 291 322
e 291 353
e 291 361
e 292 53
e 292 87
e 292 135
e 292 180
e 292 342
e 293 68
e 293 187
e 293 216
e 293 262
e 293 302
e 294 80
e 294 97
e 294 175
e 294 201
e 294 271
e 295 26
e 295 79
e 295 200
e 295 305
e 295 386
e 296 8
e 296 166
e 296 244
e 296 251
e 296 281
e 297 21
e 297 72
e 297 158
e 297 237
e 297 349
e 298 14
e 298 43
e 298 314
e 298 365
e 298 366
e 299 100
e 299 140
e 299 173
e 299 252
e 299 254
e 300 60
e 300 131
e 300 179
e 300 191
e 300 399
e 301 59
e 301 70
e 301 118
e 301 226
e 301 406
e 302 67
e 302 116
e 302 138
e 302 187
e 302 214
e 303 92
e 303 104
e 303 240
e 303 371
e 303 405
e 304 100
e 304 251
e 304 256
e 304 276
e 304 390
e 305 13
e 305 67
e 305 320
e 305 322
e 305 373
e 306 45
e 306 190
e 306 265
e 306 326
e 306 388
e 307 12
e 307 32
e 307 77
e 307 82
e 307 201
e 308 141
e 308 142
e 308 158
e 308 377
e 308 391
e 309 15
e 309 71
e 309 84
e 309 252
e 309 258
e 310 24
e 310 52
e 310 85
e 310 137
e 310 163
e 311 88
e 311 147
e 311 254
e 311 330
e 311 419
e 312 118
e 312 276
e 312 338
e 312 384
e 312 401
e 313 100
e 313 154
e 313 274
e 313 310
e 313 414
e 314 94
e 314 121
e 314 162
e 314 191
e 314 249
e 315 4
e 315 175
e 315 309
e 315 333
e 315 362
e 316 17
e 316 100
e 316 161
e 316 235
e 316 315
e 317 25
e 317 47
e 317 137
e 317 171
e 317 368
e 318 70
e 318 161
e 318 179
e 318 361
e 318 402
e 319 138
e 319 194
e 319 347
e 319 397
e 319 420
e 320 6
e 320 75
e 320 117
e 320 175
e 320 395
e 321 31
e 321 40
e 321 102
e 321 174
e 321 301
e 322 23
e 322 115
e 322 149
e 322 196
e 322 207
e 323 26
e 323 43
e 323 296
e 323 353
e 323 370
e 324 14
e 324 33
e 324 137
e 324 385
e 324 411
e 325 56
e 325 244
e 325 272
e 325 303
e 325 319
e 326 184
e 326 235
e 326 253
e 326 327
e 326 372
e 327 66
e 327 171
e 327 240
e 327 250
e 327 252
e 328 118
e 328 245
e 328 296
e 328 335
e 328 354
e 329 77
e 329 83
e 329 148
e 329 290
e 329 308
e 330 68
e 330 83
e 330 97
e 330 143
e 330 171
e 331 29
e 331 110
e 331 325
e 331 333
e 331 371
e 332 167
e 332 285
e 332 346
e 332 365
e 332 416
e 333 51
e 333 88
e 333 157
e 333 294
e 333 410
e 334 43
e 334 46
e 334 172
e 334 340
e 334 401
e 335 127
e 335 151
e 335 170
e 335 282
e 335 295
e 336 122
e 336 264
e 336 376
e 336 395
e 336 399
e 337 41
e 337 228
e 337 263
e 337 340
e 337 419
e 338 108
e 338 122
e 338 183
e 338 308
e 338 346
e 339 34
e 339 72
e 339 90
e 339 138
e 339 336
e 340 85
e 340 94
e 340 110
e 340 135
e 340 270
e 341 14
e 341 100
e 341 148
e 341 164
e 341 357
e 342 17
e 342 144
e 342 190
e 342 268
e 342 311
e 343 268
e 343 294
e 343 322
e 343 338
e 343 352
e 344 149
e 344 192
e 344 307
e 344 403
e 344 416
e 345 82
e 345 101
e 345 195
e 345 232
e 345 366
e 346 8
e 346 114
e 346 290
e 346 339
e 346 359
e 347 241
e 347 297
e 347 361
e 347 384
e 347 392
e 348 22
e 348 49
e 348 51
e 348 99
e 348 337
e 349 38
e 349 97
e 349 134
e 349 196
e 349 277
e 350 148
e 350 150
e 350 220
e 350 308
e 350 385
e 351 31
e 351 81
e 351 151
e 351 289
e 351 329
e 352 45
e 352 206
e 352 271
e 352 272
e 352 349
e 353 1
e 353 83
e 353 129
e 353 167
e 353 419
e 354 77
e 354 105
e 354 222
e 354 288
e 354 301
e 355 150
e 355 189
e 355 228
e 355 264
e 355 379
e 356 43
e 356 146
e 356 234
e 356 238
e 356 367
e 357 13
e 357 149
e 357 223
e 357 270
e 357 372
e 358 29
e 358 171
e 358 193
e 358 244
e 358 285
e 359 112
e 359 184
e 359 255
e 359 393
e 359 401
e 360 165
e 360 171
e 360 206
e 360 252
e 360 322
e 361 68
e 361 78
e 361 131
e 361 169
e 361 172
e 362 36
e 362 120
e 362 136
e 362 257
e 362 378
e 363 94
e 363 139
e 363 157
e 363 181
e 363 327
e 364 17
e 364 146
e 364 174
e 364 200
e 364 290
e 365 23
e 365 107
e 365 151
e 365 194
e 365 240
e 366 47
e 366 64
e 366 166
e 366 343
e 366 386
e 367 95
e 367 154
e 367 301
e 367 323
e 367 359
e 368 132
e 368 199
e 368 231
e 368 344
e 368 377
e 369 92
e 369 108
e 369 242
e 369 309
e 369 420
e 370 7
e 370 138
e 370 231
e 370 234
e 370 278
e 371 6
e 371 138
e 371 155
e 371 163
e 371 286
e 372 155
e 372 180
e 372 328
e 372 362
e 372 385
e 373 37
e 373 158
e 373 190
e 373 223
e 373 394
e 374 48
e 374 145
e 374 191
e 374 376
e 374 415
e 375 73
e 375 128
e 375 168
e 375 225
e 375 356
e 376 6
e 376 15
e 376 51
e 376 176
e 376 364
e 377 14
e 377 64
e 377 120
e 377 178
e 377 201
e 378 8
e 378 12
e 378 90
e 378 225
e 378 312
e 379 3
e 379 21
e 379 54
e 379 244
e 379 288
e 380 20
e 380 23
e 380 124
e 380 130
e 380 175
e 381 57
e 381 93
e 381 245
e 381 262
e 381 281
e 382 120
e 382 147
e 382 181
e 382 304
e 382 372
e 383 11
e 383 62
e 383 125
e 383 179
e 383 372
e 384 76
e 384 185
e 384 300
e 384 363
e 384 402
e 385 16
e 385 176
e 385 342
e 385 381
e 385 400
e 386 27
e 386 197
e 386 272
e 386 361
e 386 362
e 387 56
e 387 57
e 387 339
e 387 356
e 387 385
e 388 59
e 388 78
e 388 195
e 388 302
e 388 404
e 389 211
e 389 258
e 389 328
e 389 332
e 389 358
e 390 88
e 390 91
e 390 98
e 390 215
e 390 309
e 391 92
e 391 159
e 391 212
e 391 288
e 391 359
e 392 106
e 392 170
e 392 299
e 392 326
e 392 415
e 393 21
e 393 209
e 393 217
e 393 341
e 393 358
e 394 157
e 394 239
e 394 277
e 394 332
e 394 381
e 395 44
e 395 85
e 395 258
e 395 308
e 395 413
e 396 32
e 396 81
e 396 143
e 396 269
e 396 354
e 397 163
e 397 180
e 397 267
e 397 359
e 397 382
e 398 62
e 398 109
e 398 318
e 398 343
e 398 364
e 399 25
e 399 72
e 399 276
e 399 281
e 399 394
e 400 16
e 400 79
e 400 193
e 400 317
e 400 398
e 401 96
e 401 103
e 401 137
e 401 318
e 401 338
e 402 58
e 402 165
e 402 170
e 402 237
e 402 244
e 403 158
e 403 315
e 403 325
e 403 328
e 403 343
e 404 6
e 404 57
e 404 148
e 404 218
e 404 405
e 405 28
e 405 58
e 405 195
e 405 310
e 405 345
e 406 10
e 406 232
e 406 325
e 406 384
e 406 392
e 407 239
e 407 339
e 407 353
e 407 397
e 407 403
e 408 8
e 408 15
e 408 121
e 408 240
e 408 246
e 409 151
e 409 207
e 409 345
e 409 386
e 409 407
e 410 23
e 410 31
e 410 82
e 410 188
e 410 230
e 411 94
e 411 147
e 411 152
e 411 209
e 411 217
e 412 6
e 412 22
e 412 33
e 412 49
e 412 299
e 413 60
e 413 144
e 413 163
e 413 217
e 413 249
e 414 81
e 414 127
e 414 154
e 414 162
e 414 226
e 415 2
e 415 13
e 415 42
e 415 237
e 415 247
e 416 40
e 416 244
e 416 253
e 416 261
e 416 340
e 417 6
e 417 39
e 417 196
e 417 284
e 417 361
e 418 43
e 418 51
e 418 113
e 418 139
e 418 320
e 419 104
e 419 109
e 419 194
e 419 215
e 419 406
e 420 125
e 420 242
e 420 296
e 420 311
e 420 365
